unsat
((set-logic NIA)
(declare-fun q!3 () Int)
(declare-fun b!2 () Int)
(declare-fun s!0 () Int)
(declare-fun p!5 () Int)
(declare-fun a!4 () Int)
(declare-fun r!1 () Int)
(proof
(let ((?x308 (* (- 1) (* r00 b00 q!3))))
 (let ((?x300 (* (- 1) (* p00 s00 b!2))))
 (let ((?x317 (* (- 1) (* q00 a00 s!0))))
 (let ((?x306 (* s00 a00 q!3)))
 (let ((?x296 (* p00 b00 s!0)))
 (let ((?x291 (* q00 r00 b!2)))
 (let ((?x203 (+ ?x291 ?x296 ?x306 ?x317 ?x300 ?x308)))
 (let (($x389 (<= ?x203 0)))
 (let (($x1026 (= ?x203 0)))
 (let ((?x1388 (* (- 1) q!3)))
 (let ((?x639 (+ ?x1388 p!5)))
 (let ((?x1385 (+ a!4 (* (- 1) b!2))))
 (let ((?x1429 (* (- 1) s!0)))
 (let ((?x650 (+ ?x1429 r!1)))
 (let ((?x1461 (* ?x650 ?x650 ?x1385 ?x1385 ?x1385 ?x639 ?x639 s!0 b!2 b!2 b!2 q!3)))
 (let ((?x1272 (* (- 1) (* a!4 b!2 q!3 q!3 p!5 p!5))))
 (let ((?x729 (* ?x650 ?x650 ?x1385 ?x1385 ?x639 ?x639 ?x639 s!0 s!0 s!0 q!3 q!3)))
 (let ((?x229 (+ (* b!2 b!2 q!3 q!3 p!5 p!5) (* (- 2) (* b!2 b!2 q!3 q!3 q!3 p!5)) (* (- 1) (* a!4 b!2 q!3 q!3 q!3 q!3)) ?x729 (* 2 (* a!4 b!2 q!3 q!3 q!3 p!5)) ?x1272 (* b!2 b!2 q!3 q!3 q!3 q!3) (* (- 1) ?x1461))))
 (let (($x1440 (= (* ?x229 ?x203) 0)))
 (let (($x1089 (not $x1440)))
 (let ((?x485 (* p00 s00 a!4)))
 (let ((?x463 (* r00 b00 p!5)))
 (let ((?x429 (* q00 a00 r!1)))
 (let ((?x1439 (+ ?x291 ?x296 ?x306 ?x317 (* (- 1) (* p00 b00 r!1)) (* (- 1) (* q00 r00 a!4)) ?x300 ?x308 ?x429 (* (- 1) (* s00 a00 p!5)) ?x463 ?x485)))
 (let ((?x1462 (* a!4 a!4 a!4 a!4 a!4 a!4 r!1 r!1 r!1 p!5 p!5 p!5)))
 (let ((?x1420 (* s!0 a!4 a!4 a!4 a!4 a!4 b!2 r!1 r!1 p!5 p!5 p!5)))
 (let ((?x1417 (* s!0 a!4 a!4 a!4 a!4 a!4 a!4 r!1 r!1 p!5 p!5 p!5)))
 (let ((?x1393 (* s!0 a!4 a!4 a!4 b!2 b!2 b!2 r!1 r!1 q!3 p!5 p!5)))
 (let ((?x1392 (* s!0 a!4 a!4 a!4 a!4 b!2 b!2 r!1 r!1 q!3 p!5 p!5)))
 (let ((?x1390 (* s!0 a!4 a!4 a!4 a!4 a!4 b!2 r!1 r!1 q!3 p!5 p!5)))
 (let ((?x1384 (* s!0 a!4 a!4 a!4 a!4 a!4 a!4 r!1 r!1 q!3 p!5 p!5)))
 (let ((?x1341 (* s!0 a!4 a!4 a!4 b!2 b!2 b!2 r!1 r!1 p!5 p!5 p!5)))
 (let ((?x1339 (* s!0 a!4 a!4 a!4 a!4 b!2 b!2 r!1 r!1 p!5 p!5 p!5)))
 (let ((?x1314 (* a!4 a!4 r!1 r!1 r!1 r!1 r!1 p!5 p!5 p!5 p!5 p!5)))
 (let ((?x1237 (* s!0 s!0 a!4 a!4 r!1 r!1 r!1 p!5 p!5 p!5 p!5 p!5)))
 (let ((?x1221 (* a!4 a!4 a!4 b!2 b!2 b!2 r!1 r!1 r!1 p!5 p!5 p!5)))
 (let ((?x1100 (* a!4 a!4 a!4 a!4 b!2 b!2 r!1 r!1 r!1 q!3 p!5 p!5)))
 (let ((?x1030 (* s!0 s!0 a!4 a!4 r!1 r!1 r!1 q!3 p!5 p!5 p!5 p!5)))
 (let ((?x1022 (* a!4 a!4 r!1 r!1 r!1 r!1 r!1 q!3 p!5 p!5 p!5 p!5)))
 (let ((?x988 (* s!0 a!4 a!4 r!1 r!1 r!1 r!1 q!3 q!3 p!5 p!5 p!5)))
 (let ((?x919 (* s!0 a!4 a!4 r!1 r!1 r!1 r!1 p!5 p!5 p!5 p!5 p!5)))
 (let ((?x882 (* s!0 s!0 a!4 a!4 r!1 r!1 r!1 q!3 q!3 p!5 p!5 p!5)))
 (let ((?x600 (* a!4 a!4 a!4 b!2 b!2 b!2 r!1 r!1 r!1 q!3 p!5 p!5)))
 (let ((?x577 (* s!0 s!0 s!0 a!4 a!4 r!1 r!1 p!5 p!5 p!5 p!5 p!5)))
 (let ((?x517 (* a!4 a!4 a!4 a!4 a!4 b!2 r!1 r!1 r!1 q!3 p!5 p!5)))
 (let ((?x484 (* a!4 a!4 a!4 a!4 a!4 a!4 r!1 r!1 r!1 q!3 p!5 p!5)))
 (let ((?x364 (* a!4 a!4 a!4 a!4 a!4 b!2 r!1 r!1 r!1 p!5 p!5 p!5)))
 (let ((?x363 (* a!4 a!4 a!4 a!4 b!2 b!2 r!1 r!1 r!1 p!5 p!5 p!5)))
 (let ((?x341 (* a!4 a!4 r!1 r!1 r!1 r!1 r!1 q!3 q!3 p!5 p!5 p!5)))
 (let ((?x174 (* s!0 s!0 s!0 a!4 a!4 r!1 r!1 q!3 q!3 p!5 p!5 p!5)))
 (let ((?x173 (* s!0 s!0 s!0 a!4 a!4 r!1 r!1 q!3 p!5 p!5 p!5 p!5)))
 (let ((?x157 (* s!0 a!4 a!4 r!1 r!1 r!1 r!1 q!3 p!5 p!5 p!5 p!5)))
 (let ((?x446 (+ (* (- 6) ?x157) (* (- 2) ?x173) ?x174 (* (- 1) ?x341) (* 3 ?x363) (* (- 3) ?x364) (* (- 1) ?x484) (* 3 ?x517) ?x577 ?x600 (* (- 3) ?x882) (* 3 ?x919) (* 3 ?x988) (* 2 ?x1022) (* 6 ?x1030) (* (- 3) ?x1100) (* (- 1) ?x1221) (* (- 3) ?x1237) ?x1272 (* (- 1) ?x1314) (* 2 (* a!4 b!2 q!3 p!5 p!5 p!5)) (* (- 3) ?x1339) ?x1341 ?x1384 (* (- 3) ?x1390) (* 3 ?x1392) (* (- 1) ?x1393) (* a!4 a!4 p!5 p!5 p!5 p!5) (* (- 1) (* a!4 b!2 p!5 p!5 p!5 p!5)) (* (- 2) (* a!4 a!4 q!3 p!5 p!5 p!5)) (* (- 1) ?x1417) (* a!4 a!4 q!3 q!3 p!5 p!5) (* 3 ?x1420) ?x1462)))
 (let ((?x262 (* ?x446 ?x1439)))
 (let (($x1436 (= ?x262 0)))
 (let (($x416 (not $x1436)))
 (let (($x1438 (or $x416 $x1089)))
 (let ((?x430 (* s00 a00 p!5)))
 (let ((?x403 (* q00 r00 a!4)))
 (let ((?x388 (* p00 b00 r!1)))
 (let ((?x282 (+ ?x388 ?x403 (* (- 1) ?x429) ?x430 (* (- 1) ?x463) (* (- 1) ?x485))))
 (let (($x283 (= ?x282 0)))
 (let ((?x139 (* q00 a00)))
 (let ((?x297 (+ ?x139 (* (- 1) (* p00 b00)) (* (- 1) (* a!4 q!3)) (* b!2 p!5))))
 (let ((?x592 (* b!2 r!1)))
 (let ((?x135 (* s00 a00)))
 (let (($x1401 (= (+ ?x135 (* (- 1) (* r00 b00)) ?x592 (* (- 1) (* s!0 a!4))) 0)))
 (let ((?x41 (* q00 r00)))
 (let ((?x746 (* (- 1) ?x41)))
 (let ((?x37 (* p00 s00)))
 (let (($x1399 (and (= (+ ?x37 ?x746 (* r!1 q!3) (* (- 1) (* s!0 p!5))) 0) $x1401 (= ?x297 0) $x283 $x1026 $x1438)))
 (let ((?x890 (* (- 1) (* s!0 q00 a00))))
 (let ((?x904 (* q!3 s00 a00)))
 (let ((?x902 (* (- 1) (* q!3 r00 b00))))
 (let ((?x897 (* s!0 p00 b00)))
 (let ((?x1215 (* (- 1) (* b!2 p00 s00))))
 (let ((?x1212 (* b!2 q00 r00)))
 (let ((?x549 (+ ?x1212 ?x1215 ?x897 ?x902 ?x904 ?x890)))
 (let ((?x444 (+ p!5 ?x1388)))
 (let ((?x1383 (+ r!1 ?x1429)))
 (let ((?x345 (* ?x1383 ?x1383 ?x1385 ?x1385 ?x1385 ?x444 ?x444 s!0 b!2 b!2 b!2 q!3)))
 (let ((?x347 (* ?x1383 ?x1383 ?x1385 ?x1385 ?x444 ?x444 ?x444 s!0 s!0 s!0 q!3 q!3)))
 (let ((?x1363 (* (- 1) (* p!5 p!5 a!4 q!3 q!3 b!2))))
 (let ((?x1455 (+ (* q!3 q!3 q!3 q!3 b!2 b!2) (* (- 1) (* a!4 q!3 q!3 q!3 q!3 b!2)) (* (- 2) (* p!5 q!3 q!3 q!3 b!2 b!2)) (* 2 (* p!5 a!4 q!3 q!3 q!3 b!2)) (* p!5 p!5 q!3 q!3 b!2 b!2) ?x1363 ?x347 (* (- 1) ?x345))))
 (let ((?x1084 (* r!1 q00 a00)))
 (let ((?x1088 (* (- 1) (* p!5 s00 a00))))
 (let ((?x246 (* (- 1) (* r!1 p00 b00))))
 (let ((?x243 (* p!5 r00 b00)))
 (let ((?x1207 (* (- 1) (* a!4 q00 r00))))
 (let ((?x1190 (* a!4 p00 s00)))
 (let ((?x574 (* p!5 p!5 a!4 a!4 a!4 q!3 b!2 b!2 b!2 r!1 r!1 s!0)))
 (let ((?x254 (* p!5 p!5 a!4 a!4 a!4 a!4 q!3 b!2 b!2 r!1 r!1 s!0)))
 (let ((?x149 (* p!5 p!5 a!4 a!4 a!4 a!4 a!4 q!3 b!2 r!1 r!1 s!0)))
 (let ((?x256 (* p!5 p!5 a!4 a!4 a!4 a!4 a!4 a!4 q!3 r!1 r!1 s!0)))
 (let ((?x255 (* p!5 p!5 p!5 a!4 a!4 a!4 b!2 b!2 b!2 r!1 r!1 s!0)))
 (let ((?x227 (* p!5 p!5 p!5 a!4 a!4 a!4 a!4 b!2 b!2 r!1 r!1 s!0)))
 (let ((?x1444 (* p!5 p!5 p!5 a!4 a!4 a!4 a!4 a!4 b!2 r!1 r!1 s!0)))
 (let ((?x1079 (* p!5 p!5 p!5 a!4 a!4 a!4 a!4 a!4 a!4 r!1 r!1 s!0)))
 (let ((?x999 (* p!5 p!5 a!4 a!4 a!4 q!3 b!2 b!2 b!2 r!1 r!1 r!1)))
 (let ((?x1074 (* p!5 p!5 a!4 a!4 a!4 a!4 q!3 b!2 b!2 r!1 r!1 r!1)))
 (let ((?x278 (* p!5 p!5 a!4 a!4 a!4 a!4 a!4 q!3 b!2 r!1 r!1 r!1)))
 (let ((?x269 (* p!5 p!5 a!4 a!4 a!4 a!4 a!4 a!4 q!3 r!1 r!1 r!1)))
 (let ((?x657 (* p!5 p!5 p!5 a!4 a!4 a!4 b!2 b!2 b!2 r!1 r!1 r!1)))
 (let ((?x1474 (* p!5 p!5 p!5 a!4 a!4 a!4 a!4 b!2 b!2 r!1 r!1 r!1)))
 (let ((?x1332 (* p!5 p!5 p!5 a!4 a!4 a!4 a!4 a!4 b!2 r!1 r!1 r!1)))
 (let ((?x1328 (* p!5 p!5 p!5 a!4 a!4 a!4 a!4 a!4 a!4 r!1 r!1 r!1)))
 (let ((?x1453 (* p!5 p!5 p!5 a!4 a!4 q!3 q!3 r!1 r!1 s!0 s!0 s!0)))
 (let ((?x1448 (* p!5 p!5 p!5 p!5 a!4 a!4 q!3 r!1 r!1 s!0 s!0 s!0)))
 (let ((?x1349 (* p!5 p!5 p!5 p!5 p!5 a!4 a!4 r!1 r!1 s!0 s!0 s!0)))
 (let ((?x870 (* p!5 p!5 p!5 a!4 a!4 q!3 q!3 r!1 r!1 r!1 s!0 s!0)))
 (let ((?x861 (* p!5 p!5 p!5 p!5 a!4 a!4 q!3 r!1 r!1 r!1 s!0 s!0)))
 (let ((?x1234 (* p!5 p!5 p!5 p!5 p!5 a!4 a!4 r!1 r!1 r!1 s!0 s!0)))
 (let ((?x1229 (* p!5 p!5 p!5 a!4 a!4 q!3 q!3 r!1 r!1 r!1 r!1 s!0)))
 (let ((?x599 (* p!5 p!5 p!5 p!5 a!4 a!4 q!3 r!1 r!1 r!1 r!1 s!0)))
 (let ((?x591 (* p!5 p!5 p!5 p!5 p!5 a!4 a!4 r!1 r!1 r!1 r!1 s!0)))
 (let ((?x285 (* p!5 p!5 p!5 a!4 a!4 q!3 q!3 r!1 r!1 r!1 r!1 r!1)))
 (let ((?x279 (* p!5 p!5 p!5 p!5 a!4 a!4 q!3 r!1 r!1 r!1 r!1 r!1)))
 (let ((?x1359 (* p!5 p!5 p!5 p!5 p!5 a!4 a!4 r!1 r!1 r!1 r!1 r!1)))
 (let ((?x1275 (+ ?x1363 (* (- 1) ?x1359) (* 2 ?x279) (* (- 1) ?x285) (* 3 ?x591) (* (- 6) ?x599) (* 3 ?x1229) (* (- 3) ?x1234) (* 6 ?x861) (* (- 3) ?x870) ?x1349 (* (- 2) ?x1448) ?x1453 ?x1328 (* (- 3) ?x1332) (* 3 ?x1474) (* (- 1) ?x657) (* (- 1) ?x269) (* 3 ?x278) (* (- 3) ?x1074) ?x999 (* (- 1) ?x1079) (* 3 ?x1444) (* (- 3) ?x227) ?x255 ?x256 (* (- 3) ?x149) (* 3 ?x254) (* (- 1) ?x574) (* p!5 p!5 p!5 p!5 a!4 a!4) (* (- 1) (* p!5 p!5 p!5 p!5 a!4 b!2)) (* (- 2) (* p!5 p!5 p!5 a!4 a!4 q!3)) (* 2 (* p!5 p!5 p!5 a!4 q!3 b!2)) (* p!5 p!5 a!4 a!4 q!3 q!3))))
 (let ((?x1284 (* ?x1275 (+ ?x1190 ?x1207 ?x1212 ?x1215 ?x243 ?x246 ?x1088 ?x1084 ?x897 ?x902 ?x904 ?x890))))
 (let ((?x140 (* p00 b00)))
 (let ((?x183 (* (- 1) ?x139)))
 (let ((?x222 (* a!4 q!3)))
 (let (($x200 (= (+ (* a!4 s!0) (* (- 1) ?x592) (* (- 1) ?x135) (* r00 b00)) 0)))
 (let (($x998 (= (+ (* p!5 s!0) (* (- 1) ?x37) ?x41 (* (- 1) (* q!3 r!1))) 0)))
 (let (($x182 (and $x998 $x200 (= (+ ?x222 ?x183 ?x140 (* (- 1) (* p!5 b!2))) 0) (= (+ ?x1190 ?x1207 ?x243 ?x246 ?x1088 ?x1084) 0) (= ?x549 0) (or (not (= ?x1284 0)) (not (= (* ?x1455 ?x549) 0))))))
 (let (($x801 (exists ((p Int) (a Int) (q Int) (b Int) (r Int) (s Int) )(! (let ((?x309 (* (- 1) (* s q00 a00))))
 (let ((?x292 (* q s00 a00)))
 (let ((?x267 (* (- 1) (* q r00 b00))))
 (let ((?x257 (* s p00 b00)))
 (let ((?x76 (* b p00 s00)))
 (let ((?x281 (* (- 1) ?x76)))
 (let ((?x72 (* b q00 r00)))
 (let ((?x315 (+ ?x72 ?x281 ?x257 ?x267 ?x292 ?x309)))
 (let ((?x328 (+ p (* (- 1) q))))
 (let ((?x324 (+ a (* (- 1) b))))
 (let ((?x332 (+ r (* (- 1) s))))
 (let ((?x809 (* (- 1) (* ?x332 ?x332 ?x324 ?x324 ?x324 ?x328 ?x328 s b b b q))))
 (let ((?x794 (* ?x332 ?x332 ?x324 ?x324 ?x328 ?x328 ?x328 s s s q q)))
 (let ((?x362 (* (- 1) (* p p a q q b))))
 (let ((?x445 (* p p q q b b)))
 (let ((?x353 (* 2 (* p a q q q b))))
 (let ((?x356 (* (- 2) (* p q q q b b))))
 (let ((?x366 (* (- 1) (* a q q q q b))))
 (let ((?x396 (* q q q q b b)))
 (let (($x953 (not (= (* (+ ?x396 ?x366 ?x356 ?x353 ?x445 ?x362 ?x794 ?x809) ?x315) 0))))
 (let ((?x228 (* r q00 a00)))
 (let ((?x250 (* (- 1) (* p s00 a00))))
 (let ((?x249 (* (- 1) (* r p00 b00))))
 (let ((?x194 (* p r00 b00)))
 (let ((?x66 (* a q00 r00)))
 (let ((?x248 (* (- 1) ?x66)))
 (let ((?x63 (* a p00 s00)))
 (let ((?x668 (+ ?x63 ?x248 ?x72 ?x281 ?x194 ?x249 ?x250 ?x228 ?x257 ?x267 ?x292 ?x309)))
 (let ((?x1331 (* (- 1) (* p p a a a q b b b r r s))))
 (let ((?x1364 (* 3 (* p p a a a a q b b r r s))))
 (let ((?x1361 (* (- 3) (* p p a a a a a q b r r s))))
 (let ((?x1354 (* (- 3) (* p p p a a a a b b r r s))))
 (let ((?x1351 (* 3 (* p p p a a a a a b r r s))))
 (let ((?x1324 (* (- 1) (* p p p a a a a a a r r s))))
 (let ((?x1346 (* (- 3) (* p p a a a a q b b r r r))))
 (let ((?x1343 (* 3 (* p p a a a a a q b r r r))))
 (let ((?x1320 (* (- 1) (* p p a a a a a a q r r r))))
 (let ((?x1319 (* (- 1) (* p p p a a a b b b r r r))))
 (let ((?x1340 (* 3 (* p p p a a a a b b r r r))))
 (let ((?x1337 (* (- 3) (* p p p a a a a a b r r r))))
 (let ((?x982 (* (- 2) (* p p p p a a q r r s s s))))
 (let ((?x981 (* (- 3) (* p p p a a q q r r r s s))))
 (let ((?x980 (* 6 (* p p p p a a q r r r s s))))
 (let ((?x978 (* (- 3) (* p p p p p a a r r r s s))))
 (let ((?x976 (* 3 (* p p p a a q q r r r r s))))
 (let ((?x975 (* (- 6) (* p p p p a a q r r r r s))))
 (let ((?x973 (* 3 (* p p p p p a a r r r r s))))
 (let ((?x747 (* (- 1) (* p p p a a q q r r r r r))))
 (let ((?x971 (* 2 (* p p p p a a q r r r r r))))
 (let ((?x722 (* (- 1) (* p p p p p a a r r r r r))))
 (let ((?x1467 (+ ?x362 ?x722 ?x971 ?x747 ?x973 ?x975 ?x976 ?x978 ?x980 ?x981 (* p p p p p a a r r s s s) ?x982 (* p p p a a q q r r s s s) (* p p p a a a a a a r r r) ?x1337 ?x1340 ?x1319 ?x1320 ?x1343 ?x1346 (* p p a a a q b b b r r r) ?x1324 ?x1351 ?x1354 (* p p p a a a b b b r r s) (* p p a a a a a a q r r s) ?x1361 ?x1364 ?x1331 (* p p p p a a) (* (- 1) (* p p p p a b)) (* (- 2) (* p p p a a q)) (* 2 (* p p p a q b)) (* p p a a q q))))
 (let (($x320 (= ?x315 0)))
 (let (($x252 (= (+ ?x63 ?x248 ?x194 ?x249 ?x250 ?x228) 0)))
 (let ((?x140 (* p00 b00)))
 (let ((?x139 (* q00 a00)))
 (let ((?x183 (* (- 1) ?x139)))
 (let (($x186 (= (+ (* a q) ?x183 ?x140 (* (- 1) (* p b))) 0)))
 (let ((?x153 (* r00 b00)))
 (let ((?x135 (* s00 a00)))
 (let ((?x142 (* (- 1) ?x135)))
 (let ((?x49 (* a s)))
 (let (($x168 (= (+ ?x49 (* (- 1) (* b r)) ?x142 ?x153) 0)))
 (let ((?x41 (* q00 r00)))
 (let ((?x37 (* p00 s00)))
 (let ((?x144 (* (- 1) ?x37)))
 (let ((?x33 (* p s)))
 (let (($x163 (= (+ ?x33 ?x144 ?x41 (* (- 1) (* q r))) 0)))
 (and $x163 $x168 $x186 $x252 $x320 (or (not (= (* ?x1467 ?x668) 0)) $x953))))))))))))))))))))))))))))))))))))))))))))))))))))))))))))))))))))) :qid k!39))
 ))
 (let (($x771 (exists ((p Int) (a Int) (q Int) (b Int) (r Int) (s Int) )(! (let ((?x889 (+ (* q00 r00 (+ b (* (- 1) a))) (* b00 p00 (+ s (* (- 1) r))) (* (- 1) (* b00 r00 (+ q (* (- 1) p)))) (* (- 1) (* p00 s00 (+ b (* (- 1) a)))) (* a00 s00 (+ q (* (- 1) p))) (* (- 1) (* a00 q00 (+ s (* (- 1) r)))))))
 (let ((?x815 (+ q (* (- 1) p))))
 (let ((?x844 (+ b (* (- 1) a))))
 (let ((?x808 (+ s (* (- 1) r))))
 (let ((?x910 (* (- 1) (* ?x808 ?x844 ?x844 ?x844 ?x815 r r a a a p p))))
 (let ((?x705 (+ (* ?x808 ?x808 ?x808 ?x815 ?x815 r r a a p p p) ?x910 (* (- 1) (* ?x844 ?x815 ?x815 a p p)))))
 (let ((?x73 (* b00 p00 s)))
 (let ((?x777 (+ (* q00 r00 b) ?x73 (* (- 1) (* b00 r00 q)) (* (- 1) (* p00 s00 b)) (* a00 s00 q) (* (- 1) (* a00 q00 s)))))
 (let ((?x328 (+ p (* (- 1) q))))
 (let ((?x324 (+ a (* (- 1) b))))
 (let ((?x332 (+ r (* (- 1) s))))
 (let ((?x809 (* (- 1) (* ?x332 ?x332 ?x324 ?x324 ?x324 ?x328 ?x328 s b b b q))))
 (let ((?x794 (* ?x332 ?x332 ?x324 ?x324 ?x328 ?x328 ?x328 s s s q q)))
 (let (($x846 (= (* (+ ?x794 ?x809 (* (- 1) (* ?x324 ?x328 ?x328 b q q))) ?x777) 0)))
 (let (($x707 (or (not $x846) (not (= (* ?x705 ?x889) 0)))))
 (let (($x783 (= ?x777 0)))
 (let ((?x69 (* a00 q00 r)))
 (let ((?x1162 (* p00 s00 a)))
 (let ((?x539 (* b00 r00 p)))
 (let ((?x738 (+ ?x539 ?x1162 (* (- 1) (* b00 p00 r)) (* (- 1) (* q00 r00 a)) (* (- 1) (* a00 s00 p)) ?x69)))
 (let ((?x57 (* b00 p00)))
 (let ((?x545 (* q a)))
 (let (($x782 (= (+ ?x545 (* (- 1) (* a00 q00)) ?x57 (* (- 1) (* b p))) 0)))
 (let ((?x47 (* a00 s00)))
 (let ((?x415 (* r b)))
 (let (($x556 (= (+ ?x415 ?x47 (* (- 1) (* s a)) (* (- 1) (* b00 r00))) 0)))
 (let ((?x41 (* q00 r00)))
 (let ((?x746 (* (- 1) ?x41)))
 (let ((?x37 (* p00 s00)))
 (let ((?x533 (* r q)))
 (and (= (+ ?x533 (* (- 1) (* s p)) ?x37 ?x746) 0) $x556 $x782 (= ?x738 0) $x783 $x707))))))))))))))))))))))))))))))) :qid k!39))
 ))
 (let ((?x689 (lambda ((p Int) (a Int) (q Int) (b Int) (r Int) (s Int) )(let ((?x309 (* (- 1) (* s q00 a00))))
 (let ((?x292 (* q s00 a00)))
 (let ((?x267 (* (- 1) (* q r00 b00))))
 (let ((?x257 (* s p00 b00)))
 (let ((?x76 (* b p00 s00)))
 (let ((?x281 (* (- 1) ?x76)))
 (let ((?x72 (* b q00 r00)))
 (let ((?x315 (+ ?x72 ?x281 ?x257 ?x267 ?x292 ?x309)))
 (let ((?x328 (+ p (* (- 1) q))))
 (let ((?x324 (+ a (* (- 1) b))))
 (let ((?x332 (+ r (* (- 1) s))))
 (let ((?x809 (* (- 1) (* ?x332 ?x332 ?x324 ?x324 ?x324 ?x328 ?x328 s b b b q))))
 (let ((?x794 (* ?x332 ?x332 ?x324 ?x324 ?x328 ?x328 ?x328 s s s q q)))
 (let ((?x362 (* (- 1) (* p p a q q b))))
 (let ((?x445 (* p p q q b b)))
 (let ((?x353 (* 2 (* p a q q q b))))
 (let ((?x356 (* (- 2) (* p q q q b b))))
 (let ((?x366 (* (- 1) (* a q q q q b))))
 (let ((?x396 (* q q q q b b)))
 (let (($x953 (not (= (* (+ ?x396 ?x366 ?x356 ?x353 ?x445 ?x362 ?x794 ?x809) ?x315) 0))))
 (let ((?x228 (* r q00 a00)))
 (let ((?x250 (* (- 1) (* p s00 a00))))
 (let ((?x249 (* (- 1) (* r p00 b00))))
 (let ((?x194 (* p r00 b00)))
 (let ((?x66 (* a q00 r00)))
 (let ((?x248 (* (- 1) ?x66)))
 (let ((?x63 (* a p00 s00)))
 (let ((?x668 (+ ?x63 ?x248 ?x72 ?x281 ?x194 ?x249 ?x250 ?x228 ?x257 ?x267 ?x292 ?x309)))
 (let ((?x1331 (* (- 1) (* p p a a a q b b b r r s))))
 (let ((?x1364 (* 3 (* p p a a a a q b b r r s))))
 (let ((?x1361 (* (- 3) (* p p a a a a a q b r r s))))
 (let ((?x1354 (* (- 3) (* p p p a a a a b b r r s))))
 (let ((?x1351 (* 3 (* p p p a a a a a b r r s))))
 (let ((?x1324 (* (- 1) (* p p p a a a a a a r r s))))
 (let ((?x1346 (* (- 3) (* p p a a a a q b b r r r))))
 (let ((?x1343 (* 3 (* p p a a a a a q b r r r))))
 (let ((?x1320 (* (- 1) (* p p a a a a a a q r r r))))
 (let ((?x1319 (* (- 1) (* p p p a a a b b b r r r))))
 (let ((?x1340 (* 3 (* p p p a a a a b b r r r))))
 (let ((?x1337 (* (- 3) (* p p p a a a a a b r r r))))
 (let ((?x982 (* (- 2) (* p p p p a a q r r s s s))))
 (let ((?x981 (* (- 3) (* p p p a a q q r r r s s))))
 (let ((?x980 (* 6 (* p p p p a a q r r r s s))))
 (let ((?x978 (* (- 3) (* p p p p p a a r r r s s))))
 (let ((?x976 (* 3 (* p p p a a q q r r r r s))))
 (let ((?x975 (* (- 6) (* p p p p a a q r r r r s))))
 (let ((?x973 (* 3 (* p p p p p a a r r r r s))))
 (let ((?x747 (* (- 1) (* p p p a a q q r r r r r))))
 (let ((?x971 (* 2 (* p p p p a a q r r r r r))))
 (let ((?x722 (* (- 1) (* p p p p p a a r r r r r))))
 (let ((?x1467 (+ ?x362 ?x722 ?x971 ?x747 ?x973 ?x975 ?x976 ?x978 ?x980 ?x981 (* p p p p p a a r r s s s) ?x982 (* p p p a a q q r r s s s) (* p p p a a a a a a r r r) ?x1337 ?x1340 ?x1319 ?x1320 ?x1343 ?x1346 (* p p a a a q b b b r r r) ?x1324 ?x1351 ?x1354 (* p p p a a a b b b r r s) (* p p a a a a a a q r r s) ?x1361 ?x1364 ?x1331 (* p p p p a a) (* (- 1) (* p p p p a b)) (* (- 2) (* p p p a a q)) (* 2 (* p p p a q b)) (* p p a a q q))))
 (let (($x320 (= ?x315 0)))
 (let (($x252 (= (+ ?x63 ?x248 ?x194 ?x249 ?x250 ?x228) 0)))
 (let ((?x140 (* p00 b00)))
 (let ((?x139 (* q00 a00)))
 (let ((?x183 (* (- 1) ?x139)))
 (let (($x186 (= (+ (* a q) ?x183 ?x140 (* (- 1) (* p b))) 0)))
 (let ((?x153 (* r00 b00)))
 (let ((?x135 (* s00 a00)))
 (let ((?x142 (* (- 1) ?x135)))
 (let ((?x49 (* a s)))
 (let (($x168 (= (+ ?x49 (* (- 1) (* b r)) ?x142 ?x153) 0)))
 (let ((?x41 (* q00 r00)))
 (let ((?x37 (* p00 s00)))
 (let ((?x144 (* (- 1) ?x37)))
 (let ((?x33 (* p s)))
 (let (($x163 (= (+ ?x33 ?x144 ?x41 (* (- 1) (* q r))) 0)))
 (let (($x192 (and $x163 $x168 $x186 $x252 $x320 (or (not (= (* ?x1467 ?x668) 0)) $x953))))
 (let ((?x889 (+ (* q00 r00 (+ b (* (- 1) a))) (* b00 p00 (+ s (* (- 1) r))) (* (- 1) (* b00 r00 (+ q (* (- 1) p)))) (* (- 1) (* p00 s00 (+ b (* (- 1) a)))) (* a00 s00 (+ q (* (- 1) p))) (* (- 1) (* a00 q00 (+ s (* (- 1) r)))))))
 (let ((?x815 (+ q (* (- 1) p))))
 (let ((?x844 (+ b (* (- 1) a))))
 (let ((?x808 (+ s (* (- 1) r))))
 (let ((?x910 (* (- 1) (* ?x808 ?x844 ?x844 ?x844 ?x815 r r a a a p p))))
 (let ((?x705 (+ (* ?x808 ?x808 ?x808 ?x815 ?x815 r r a a p p p) ?x910 (* (- 1) (* ?x844 ?x815 ?x815 a p p)))))
 (let ((?x73 (* b00 p00 s)))
 (let ((?x777 (+ (* q00 r00 b) ?x73 (* (- 1) (* b00 r00 q)) (* (- 1) (* p00 s00 b)) (* a00 s00 q) (* (- 1) (* a00 q00 s)))))
 (let (($x846 (= (* (+ ?x794 ?x809 (* (- 1) (* ?x324 ?x328 ?x328 b q q))) ?x777) 0)))
 (let (($x707 (or (not $x846) (not (= (* ?x705 ?x889) 0)))))
 (let (($x783 (= ?x777 0)))
 (let ((?x69 (* a00 q00 r)))
 (let ((?x1162 (* p00 s00 a)))
 (let ((?x539 (* b00 r00 p)))
 (let ((?x738 (+ ?x539 ?x1162 (* (- 1) (* b00 p00 r)) (* (- 1) (* q00 r00 a)) (* (- 1) (* a00 s00 p)) ?x69)))
 (let ((?x57 (* b00 p00)))
 (let ((?x545 (* q a)))
 (let (($x782 (= (+ ?x545 (* (- 1) (* a00 q00)) ?x57 (* (- 1) (* b p))) 0)))
 (let ((?x47 (* a00 s00)))
 (let ((?x415 (* r b)))
 (let (($x556 (= (+ ?x415 ?x47 (* (- 1) (* s a)) (* (- 1) (* b00 r00))) 0)))
 (let (($x726 (= (+ (* r q) (* (- 1) (* s p)) ?x37 (* (- 1) ?x41)) 0)))
 (let (($x772 (and $x726 $x556 $x782 (= ?x738 0) $x783 $x707)))
 (rewrite (= $x772 $x192))))))))))))))))))))))))))))))))))))))))))))))))))))))))))))))))))))))))))))))))))))))))))))))
 ))
 (let (($x793 (exists ((p Int) (a Int) (q Int) (b Int) (r Int) (s Int) )(! (let ((?x889 (+ (* q00 r00 (+ b (* (- 1) a))) (* b00 p00 (+ s (* (- 1) r))) (* (- 1) (* b00 r00 (+ q (* (- 1) p)))) (* (- 1) (* p00 s00 (+ b (* (- 1) a)))) (* a00 s00 (+ q (* (- 1) p))) (* (- 1) (* a00 q00 (+ s (* (- 1) r)))))))
 (let ((?x815 (+ q (* (- 1) p))))
 (let ((?x844 (+ b (* (- 1) a))))
 (let ((?x808 (+ s (* (- 1) r))))
 (let ((?x910 (* (- 1) (* ?x808 ?x844 ?x844 ?x844 ?x815 r r a a a p p))))
 (let ((?x705 (+ (* ?x808 ?x808 ?x808 ?x815 ?x815 r r a a p p p) ?x910 (* (- 1) (* ?x844 ?x815 ?x815 a p p)))))
 (let ((?x73 (* b00 p00 s)))
 (let ((?x777 (+ (* q00 r00 b) ?x73 (* (- 1) (* b00 r00 q)) (* (- 1) (* p00 s00 b)) (* a00 s00 q) (* (- 1) (* a00 q00 s)))))
 (let ((?x328 (+ p (* (- 1) q))))
 (let ((?x324 (+ a (* (- 1) b))))
 (let ((?x332 (+ r (* (- 1) s))))
 (let ((?x809 (* (- 1) (* ?x332 ?x332 ?x324 ?x324 ?x324 ?x328 ?x328 s b b b q))))
 (let ((?x794 (* ?x332 ?x332 ?x324 ?x324 ?x328 ?x328 ?x328 s s s q q)))
 (let (($x846 (= (* (+ ?x794 ?x809 (* (- 1) (* ?x324 ?x328 ?x328 b q q))) ?x777) 0)))
 (let (($x707 (or (not $x846) (not (= (* ?x705 ?x889) 0)))))
 (let (($x783 (= ?x777 0)))
 (let ((?x725 (* a00 s00 p)))
 (let ((?x717 (* q00 r00 a)))
 (let ((?x65 (* b00 p00 r)))
 (let ((?x740 (+ (* (- 1) (* b00 r00 p)) (* (- 1) (* p00 s00 a)) ?x65 ?x717 ?x725 (* (- 1) (* a00 q00 r)))))
 (let ((?x59 (* b p)))
 (let ((?x55 (* a00 q00)))
 (let (($x963 (= (+ (* (- 1) (* q a)) ?x55 (* (- 1) (* b00 p00)) ?x59) 0)))
 (let ((?x51 (* b00 r00)))
 (let ((?x792 (* s a)))
 (let (($x621 (= (+ (* (- 1) (* r b)) (* (- 1) (* a00 s00)) ?x792 ?x51) 0)))
 (let ((?x41 (* q00 r00)))
 (let ((?x37 (* p00 s00)))
 (let ((?x144 (* (- 1) ?x37)))
 (let ((?x550 (* s p)))
 (and (= (+ (* (- 1) (* r q)) ?x550 ?x144 ?x41) 0) $x621 $x963 (= ?x740 0) $x783 $x707))))))))))))))))))))))))))))))) :qid k!39))
 ))
 (let ((?x776 (lambda ((p Int) (a Int) (q Int) (b Int) (r Int) (s Int) )(let ((?x889 (+ (* q00 r00 (+ b (* (- 1) a))) (* b00 p00 (+ s (* (- 1) r))) (* (- 1) (* b00 r00 (+ q (* (- 1) p)))) (* (- 1) (* p00 s00 (+ b (* (- 1) a)))) (* a00 s00 (+ q (* (- 1) p))) (* (- 1) (* a00 q00 (+ s (* (- 1) r)))))))
 (let ((?x815 (+ q (* (- 1) p))))
 (let ((?x844 (+ b (* (- 1) a))))
 (let ((?x808 (+ s (* (- 1) r))))
 (let ((?x910 (* (- 1) (* ?x808 ?x844 ?x844 ?x844 ?x815 r r a a a p p))))
 (let ((?x705 (+ (* ?x808 ?x808 ?x808 ?x815 ?x815 r r a a p p p) ?x910 (* (- 1) (* ?x844 ?x815 ?x815 a p p)))))
 (let ((?x73 (* b00 p00 s)))
 (let ((?x777 (+ (* q00 r00 b) ?x73 (* (- 1) (* b00 r00 q)) (* (- 1) (* p00 s00 b)) (* a00 s00 q) (* (- 1) (* a00 q00 s)))))
 (let ((?x328 (+ p (* (- 1) q))))
 (let ((?x324 (+ a (* (- 1) b))))
 (let ((?x332 (+ r (* (- 1) s))))
 (let ((?x809 (* (- 1) (* ?x332 ?x332 ?x324 ?x324 ?x324 ?x328 ?x328 s b b b q))))
 (let ((?x794 (* ?x332 ?x332 ?x324 ?x324 ?x328 ?x328 ?x328 s s s q q)))
 (let (($x846 (= (* (+ ?x794 ?x809 (* (- 1) (* ?x324 ?x328 ?x328 b q q))) ?x777) 0)))
 (let (($x707 (or (not $x846) (not (= (* ?x705 ?x889) 0)))))
 (let (($x783 (= ?x777 0)))
 (let ((?x69 (* a00 q00 r)))
 (let ((?x1162 (* p00 s00 a)))
 (let ((?x539 (* b00 r00 p)))
 (let ((?x738 (+ ?x539 ?x1162 (* (- 1) (* b00 p00 r)) (* (- 1) (* q00 r00 a)) (* (- 1) (* a00 s00 p)) ?x69)))
 (let ((?x57 (* b00 p00)))
 (let ((?x545 (* q a)))
 (let (($x782 (= (+ ?x545 (* (- 1) (* a00 q00)) ?x57 (* (- 1) (* b p))) 0)))
 (let ((?x47 (* a00 s00)))
 (let ((?x415 (* r b)))
 (let (($x556 (= (+ ?x415 ?x47 (* (- 1) (* s a)) (* (- 1) (* b00 r00))) 0)))
 (let ((?x41 (* q00 r00)))
 (let ((?x746 (* (- 1) ?x41)))
 (let ((?x37 (* p00 s00)))
 (let ((?x533 (* r q)))
 (let (($x772 (and (= (+ ?x533 (* (- 1) (* s p)) ?x37 ?x746) 0) $x556 $x782 (= ?x738 0) $x783 $x707)))
 (let ((?x725 (* a00 s00 p)))
 (let ((?x717 (* q00 r00 a)))
 (let ((?x65 (* b00 p00 r)))
 (let (($x750 (= (+ (* (- 1) ?x539) (* (- 1) ?x1162) ?x65 ?x717 ?x725 (* (- 1) ?x69)) 0)))
 (let (($x963 (= (+ (* (- 1) ?x545) (* a00 q00) (* (- 1) ?x57) (* b p)) 0)))
 (let (($x621 (= (+ (* (- 1) ?x415) (* (- 1) ?x47) (* s a) (* b00 r00)) 0)))
 (let (($x824 (and (= (+ (* (- 1) ?x533) (* s p) (* (- 1) ?x37) ?x41) 0) $x621 $x963 $x750 $x783 $x707)))
 (rewrite (= $x824 $x772)))))))))))))))))))))))))))))))))))))))))
 ))
 (let (($x119 (exists ((p Int) (a Int) (q Int) (b Int) (r Int) (s Int) )(! (let ((?x97 (- s r)))
 (let ((?x100 (- q p)))
 (let ((?x95 (- b a)))
 (let ((?x112 (- (* a a p p p ?x100 ?x100 r r ?x97 ?x97 ?x97) (* a a a ?x95 ?x95 ?x95 p p ?x100 r r ?x97))))
 (let ((?x103 (- (+ (* ?x95 q00 r00) (* b00 p00 ?x97)) (* b00 ?x100 r00))))
 (let ((?x108 (- (+ (- ?x103 (* ?x95 p00 s00)) (* a00 ?x100 s00)) (* a00 q00 ?x97))))
 (let (($x116 (not (= (* ?x108 (- ?x112 (* a ?x95 p p ?x100 ?x100))) 0))))
 (let ((?x86 (- r s)))
 (let ((?x85 (- p q)))
 (let ((?x84 (- a b)))
 (let ((?x90 (- (* ?x84 ?x84 ?x85 ?x85 ?x85 q q ?x86 ?x86 s s s) (* ?x84 ?x84 ?x84 b b b ?x85 ?x85 q ?x86 ?x86 s))))
 (let ((?x81 (* a00 q00 s)))
 (let ((?x76 (* b p00 s00)))
 (let ((?x77 (- (+ (* b q00 r00) (* b00 p00 s)) (* b00 q r00))))
 (let ((?x82 (- (+ (- ?x77 ?x76) (* a00 q s00)) ?x81)))
 (let (($x94 (not (= (* ?x82 (- ?x90 (* ?x84 b ?x85 ?x85 q q))) 0))))
 (let ((?x69 (* a00 q00 r)))
 (let ((?x66 (* a q00 r00)))
 (let ((?x65 (* b00 p00 r)))
 (let ((?x68 (+ (- (* (- 1) b00 p r00) (* a p00 s00)) ?x65 ?x66 (* a00 p s00))))
 (let ((?x59 (* b p)))
 (let ((?x60 (+ (- (+ (* (- 1) a q) (* a00 q00)) (* b00 p00)) ?x59)))
 (let ((?x51 (* b00 r00)))
 (let ((?x49 (* a s)))
 (let (($x53 (= (+ (- (* (- 1) b r) (* a00 s00)) ?x49 ?x51) 0)))
 (let ((?x41 (* q00 r00)))
 (let ((?x42 (+ (- (+ (* (- 1) q r) (* p s)) (* p00 s00)) ?x41)))
 (and (= ?x42 0) $x53 (= ?x60 0) (= (- ?x68 ?x69) 0) (= ?x82 0) (or $x94 $x116))))))))))))))))))))))))))))) :qid k!39))
 ))
 (let ((?x796 (lambda ((p Int) (a Int) (q Int) (b Int) (r Int) (s Int) )(let ((?x889 (+ (* q00 r00 (+ b (* (- 1) a))) (* b00 p00 (+ s (* (- 1) r))) (* (- 1) (* b00 r00 (+ q (* (- 1) p)))) (* (- 1) (* p00 s00 (+ b (* (- 1) a)))) (* a00 s00 (+ q (* (- 1) p))) (* (- 1) (* a00 q00 (+ s (* (- 1) r)))))))
 (let ((?x815 (+ q (* (- 1) p))))
 (let ((?x844 (+ b (* (- 1) a))))
 (let ((?x808 (+ s (* (- 1) r))))
 (let ((?x910 (* (- 1) (* ?x808 ?x844 ?x844 ?x844 ?x815 r r a a a p p))))
 (let ((?x705 (+ (* ?x808 ?x808 ?x808 ?x815 ?x815 r r a a p p p) ?x910 (* (- 1) (* ?x844 ?x815 ?x815 a p p)))))
 (let ((?x73 (* b00 p00 s)))
 (let ((?x777 (+ (* q00 r00 b) ?x73 (* (- 1) (* b00 r00 q)) (* (- 1) (* p00 s00 b)) (* a00 s00 q) (* (- 1) (* a00 q00 s)))))
 (let ((?x328 (+ p (* (- 1) q))))
 (let ((?x324 (+ a (* (- 1) b))))
 (let ((?x332 (+ r (* (- 1) s))))
 (let ((?x809 (* (- 1) (* ?x332 ?x332 ?x324 ?x324 ?x324 ?x328 ?x328 s b b b q))))
 (let ((?x794 (* ?x332 ?x332 ?x324 ?x324 ?x328 ?x328 ?x328 s s s q q)))
 (let (($x846 (= (* (+ ?x794 ?x809 (* (- 1) (* ?x324 ?x328 ?x328 b q q))) ?x777) 0)))
 (let (($x707 (or (not $x846) (not (= (* ?x705 ?x889) 0)))))
 (let (($x783 (= ?x777 0)))
 (let ((?x725 (* a00 s00 p)))
 (let ((?x717 (* q00 r00 a)))
 (let ((?x65 (* b00 p00 r)))
 (let ((?x740 (+ (* (- 1) (* b00 r00 p)) (* (- 1) (* p00 s00 a)) ?x65 ?x717 ?x725 (* (- 1) (* a00 q00 r)))))
 (let ((?x59 (* b p)))
 (let ((?x55 (* a00 q00)))
 (let (($x963 (= (+ (* (- 1) (* q a)) ?x55 (* (- 1) (* b00 p00)) ?x59) 0)))
 (let ((?x51 (* b00 r00)))
 (let ((?x792 (* s a)))
 (let (($x621 (= (+ (* (- 1) (* r b)) (* (- 1) (* a00 s00)) ?x792 ?x51) 0)))
 (let ((?x41 (* q00 r00)))
 (let ((?x37 (* p00 s00)))
 (let ((?x144 (* (- 1) ?x37)))
 (let ((?x550 (* s p)))
 (let (($x824 (and (= (+ (* (- 1) (* r q)) ?x550 ?x144 ?x41) 0) $x621 $x963 (= ?x740 0) $x783 $x707)))
 (let ((?x97 (- s r)))
 (let ((?x100 (- q p)))
 (let ((?x95 (- b a)))
 (let ((?x112 (- (* a a p p p ?x100 ?x100 r r ?x97 ?x97 ?x97) (* a a a ?x95 ?x95 ?x95 p p ?x100 r r ?x97))))
 (let ((?x103 (- (+ (* ?x95 q00 r00) (* b00 p00 ?x97)) (* b00 ?x100 r00))))
 (let ((?x108 (- (+ (- ?x103 (* ?x95 p00 s00)) (* a00 ?x100 s00)) (* a00 q00 ?x97))))
 (let (($x116 (not (= (* ?x108 (- ?x112 (* a ?x95 p p ?x100 ?x100))) 0))))
 (let ((?x86 (- r s)))
 (let ((?x85 (- p q)))
 (let ((?x84 (- a b)))
 (let ((?x90 (- (* ?x84 ?x84 ?x85 ?x85 ?x85 q q ?x86 ?x86 s s s) (* ?x84 ?x84 ?x84 b b b ?x85 ?x85 q ?x86 ?x86 s))))
 (let ((?x81 (* a00 q00 s)))
 (let ((?x76 (* b p00 s00)))
 (let ((?x80 (+ (- (- (+ (* b q00 r00) ?x73) (* b00 q r00)) ?x76) (* a00 q s00))))
 (let ((?x82 (- ?x80 ?x81)))
 (let (($x94 (not (= (* ?x82 (- ?x90 (* ?x84 b ?x85 ?x85 q q))) 0))))
 (let ((?x69 (* a00 q00 r)))
 (let ((?x66 (* a q00 r00)))
 (let ((?x68 (+ (- (* (- 1) b00 p r00) (* a p00 s00)) ?x65 ?x66 (* a00 p s00))))
 (let (($x61 (= (+ (- (+ (* (- 1) a q) ?x55) (* b00 p00)) ?x59) 0)))
 (let (($x53 (= (+ (- (* (- 1) b r) (* a00 s00)) (* a s) ?x51) 0)))
 (let (($x44 (= (+ (- (+ (* (- 1) q r) (* p s)) ?x37) ?x41) 0)))
 (let (($x118 (and $x44 $x53 $x61 (= (- ?x68 ?x69) 0) (= ?x82 0) (or $x94 $x116))))
 (rewrite (= $x118 $x824)))))))))))))))))))))))))))))))))))))))))))))))))))))))))
 ))
 (let ((@x120 (asserted $x119)))
 (let ((@x736 (mp (mp @x120 (quant-intro (proof-bind ?x796) (= $x119 $x793)) $x793) (rewrite (= $x793 $x793)) $x793)))
 (let ((@x800 (mp (mp @x736 (quant-intro (proof-bind ?x776) (= $x793 $x771)) $x771) (quant-intro (proof-bind ?x689) (= $x771 $x801)) $x801)))
 (let ((@x714 (mp (mp~ @x800 (sk (~ $x801 $x182)) $x182) (rewrite (= $x182 $x1399)) $x1399)))
 (let ((@x151 (and-elim @x714 $x1026)))
 (let ((@x316 (unit-resolution ((_ th-lemma arith triangle-eq) (or (not $x1026) $x389)) @x151 $x389)))
 (let (($x294 (>= ?x282 0)))
 (let ((@x406 (and-elim @x714 $x283)))
 (let ((@x391 (unit-resolution ((_ th-lemma arith triangle-eq) (or (not $x283) $x294)) @x406 $x294)))
 (let (($x381 (>= ?x203 0)))
 (let ((@x169 (unit-resolution ((_ th-lemma arith triangle-eq) (or (not $x1026) $x381)) @x151 $x381)))
 (let (($x293 (<= ?x282 0)))
 (let ((@x659 (unit-resolution ((_ th-lemma arith triangle-eq) (or (not $x283) $x293)) @x406 $x293)))
 (let (($x263 (not (<= ?x262 0))))
 (let ((@x608 (unit-resolution (hypothesis $x1089) ((_ th-lemma arith eq-propagate 0 0 0 0) @x169 @x316 @x169 @x316 $x1440) false)))
 (let (($x1294 (>= ?x262 0)))
 (let ((@x298 (lemma ((_ th-lemma arith farkas 1 1 1 1 1) (hypothesis (not $x1294)) @x659 @x169 @x391 @x316 false) $x1294)))
 (let ((@x455 (unit-resolution ((_ th-lemma arith triangle-eq) (or $x1436 $x263 (not $x1294))) @x298 (unit-resolution (and-elim @x714 $x1438) (lemma @x608 $x1440) $x416) $x263)))
 ((_ th-lemma arith farkas 1 1 1 1 1) @x455 @x659 @x169 @x391 @x316 false))))))))))))))))))))))))))))))))))))))))))))))))))))))))))))))))))))))))))))))))))))))))))))))))))))))))))))))))))))))))))))))))))))))))))))))))))))))))))

(:added-eqs                 7
 :arith-assert-diseq        2
 :arith-assert-lower        22
 :arith-assert-upper        13
 :arith-conflicts           2
 :arith-eq-adapter          7
 :arith-fixed-eqs           3
 :arith-max-min             334
 :arith-nonlinear-bounds    8
 :arith-num-rows            11
 :arith-pivots              5
 :arith-pseudo-nonlinear    4
 :arith-row-summations      2
 :arith-tableau-max-columns 97
 :arith-tableau-max-rows    11
 :conflicts                 3
 :decisions                 2
 :del-clause                15
 :final-checks              2
 :max-memory                3.84
 :memory                    3.24
 :mk-bool-var               27
 :mk-clause                 24
 :num-allocs                1266145
 :num-checks                1
 :propagations              15
 :rlimit-count              6801
 :time                      0.01
 :total-time                0.02)
